p cnf 7230 17
-351 -3222 3387 0
-357 -3210 -3392 0
-355 -3212 -3390 0
-353 -3220 -3388 0
357 -3393 0
355 -3391 0
353 -3389 0
3392 3393 0
3390 3391 0
3388 3389 0
3210 -3393 0
3212 -3391 0
3220 -3389 0
-3386 -3387 0
2814 -3395 0
2806 -3395 0
3386 3387 0
